&INPUTPP
 prefix = 'aiida'
 outdir = './out/'
 filplot = 'rho'
 plot_num = 0
/
