&CONTROL
  calculation = 'relax'
  forc_conv_thr =   1.0000000000d-03
  nstep = 200
  outdir = './out/'
  prefix = 'aiida'
  pseudo_dir = './pseudo/'
  tprnfor = .true.
  tstress = .true.
  verbosity = 'high'
/
&SYSTEM
  assume_isolated = '2D'
  degauss =   5.0000000000d-03
  ecutrho =   4.4000000000d+02
  ecutwfc =   5.5000000000d+01
  ibrav = 0
  nat = 128
  nspin = 2
  ntyp = 3
  occupations = 'smearing'
  smearing = 'cold'
  starting_magnetization(1) =   4.0000000000d-01
  tot_charge = 1
/
&ELECTRONS
  conv_thr =   1.0000000000d-09
  diagonalization = 'david'
  electron_maxstep = 100
  mixing_beta =   3.0000000000d-01
/
&IONS
/
ATOMIC_SPECIES
B      10.811 B.pbe-n-kjpaw_psl.0.1.UPF
C      12.0107 C.pbe-n-kjpaw_psl.1.0.0.UPF
N      14.0067 N.pbe.theos.UPF
ATOMIC_POSITIONS angstrom
N            1.2546500894       0.7243725668      10.0000000000 
B           -1.2546500893       3.6218628339      10.0000000000 
N            0.0000000001       2.8974902672      10.0000000000 
B           -2.5093001785       5.7949805343      10.0000000000 
N           -1.2546500892       5.0706079676      10.0000000000 
B           -3.7639502678       7.9680982347      10.0000000000 
N           -2.5093001784       7.2437256679      10.0000000000 
B           -5.0186003570      10.1412159350      10.0000000000 
N           -3.7639502677       9.4168433683      10.0000000000 
B           -6.2732504463      12.3143336354      10.0000000000 
N           -5.0186003569      11.5899610687      10.0000000000 
B           -7.5279005355      14.4874513358      10.0000000000 
N           -6.2732504462      13.7630787690      10.0000000000 
B           -8.7825506248      16.6605690361      10.0000000000 
N           -7.5279005354      15.9361964694      10.0000000000 
B            2.5093001786       1.4487451335      10.0000000000 
N            3.7639502680       0.7243725668      10.0000000000 
B            1.2546500894       3.6218628339      10.0000000000 
N            2.5093001787       2.8974902672      10.0000000000 
B            0.0000000001       5.7949805343      10.0000000000 
N            1.2546500895       5.0706079676      10.0000000000 
B           -1.2546500892       7.9680982347      10.0000000000 
N            0.0000000002       7.2437256679      10.0000000000 
B           -2.5093001784      10.1412159350      10.0000000000 
N           -1.2546500891       9.4168433683      10.0000000000 
B           -3.7639502677      12.3143336354      10.0000000000 
N           -2.5093001783      11.5899610687      10.0000000000 
B           -5.0186003569      14.4874513358      10.0000000000 
N           -3.7639502676      13.7630787690      10.0000000000 
B           -6.2732504462      16.6605690361      10.0000000000 
N           -5.0186003568      15.9361964694      10.0000000000 
B            5.0186003572       1.4487451335      10.0000000000 
N            6.2732504466       0.7243725668      10.0000000000 
B            3.7639502680       3.6218628339      10.0000000000 
N            5.0186003573       2.8974902672      10.0000000000 
B            2.5093001787       5.7949805343      10.0000000000 
N            3.7639502681       5.0706079676      10.0000000000 
B            1.2546500895       7.9680982347      10.0000000000 
N            2.5093001788       7.2437256679      10.0000000000 
B            0.0000000002      10.1412159350      10.0000000000 
N            1.2546500896       9.4168433683      10.0000000000 
B           -1.2546500891      12.3143336354      10.0000000000 
N            0.0000000003      11.5899610687      10.0000000000 
B           -2.5093001783      14.4874513358      10.0000000000 
N           -1.2546500890      13.7630787690      10.0000000000 
B           -3.7639502676      16.6605690361      10.0000000000 
N           -2.5093001782      15.9361964694      10.0000000000 
B            7.5279005358       1.4487451335      10.0000000000 
N            8.7825506252       0.7243725668      10.0000000000 
B            6.2732504466       3.6218628339      10.0000000000 
N            7.5279005359       2.8974902672      10.0000000000 
B            5.0186003573       5.7949805343      10.0000000000 
N            6.2732504467       5.0706079676      10.0000000000 
B            3.7639502681       7.9680982347      10.0000000000 
N            5.0186003574       7.2437256679      10.0000000000 
B            2.5093001788      10.1412159350      10.0000000000 
N            3.7639502682       9.4168433683      10.0000000000 
B            1.2546500896      12.3143336354      10.0000000000 
N            2.5093001789      11.5899610687      10.0000000000 
B            0.0000000003      14.4874513358      10.0000000000 
N            1.2546500897      13.7630787690      10.0000000000 
B           -1.2546500890      16.6605690361      10.0000000000 
N            0.0000000004      15.9361964694      10.0000000000 
B           10.0372007144       1.4487451335      10.0000000000 
N           11.2918508038       0.7243725668      10.0000000000 
B            8.7825506252       3.6218628339      10.0000000000 
N           10.0372007145       2.8974902672      10.0000000000 
B            7.5279005359       5.7949805343      10.0000000000 
N            8.7825506253       5.0706079676      10.0000000000 
B            6.2732504467       7.9680982347      10.0000000000 
N            7.5279005360       7.2437256679      10.0000000000 
B            5.0186003574      10.1412159350      10.0000000000 
N            6.2732504468       9.4168433683      10.0000000000 
B            3.7639502682      12.3143336354      10.0000000000 
N            5.0186003575      11.5899610687      10.0000000000 
B            2.5093001789      14.4874513358      10.0000000000 
N            3.7639502683      13.7630787690      10.0000000000 
B            1.2546500897      16.6605690361      10.0000000000 
N            2.5093001790      15.9361964694      10.0000000000 
B           12.5465008930       1.4487451335      10.0000000000 
N           13.8011509824       0.7243725668      10.0000000000 
B           11.2918508038       3.6218628339      10.0000000000 
N           12.5465008931       2.8974902672      10.0000000000 
B           10.0372007145       5.7949805343      10.0000000000 
N           11.2918508039       5.0706079676      10.0000000000 
B            8.7825506253       7.9680982347      10.0000000000 
N           10.0372007146       7.2437256679      10.0000000000 
B            7.5279005360      10.1412159350      10.0000000000 
N            8.7825506254       9.4168433683      10.0000000000 
B            6.2732504468      12.3143336354      10.0000000000 
N            7.5279005361      11.5899610687      10.0000000000 
B            5.0186003575      14.4874513358      10.0000000000 
N            6.2732504469      13.7630787690      10.0000000000 
B            3.7639502683      16.6605690361      10.0000000000 
N            5.0186003576      15.9361964694      10.0000000000 
B           15.0558010716       1.4487451335      10.0000000000 
N           16.3104511610       0.7243725668      10.0000000000 
B           13.8011509824       3.6218628339      10.0000000000 
N           15.0558010717       2.8974902672      10.0000000000 
B           12.5465008931       5.7949805343      10.0000000000 
N           13.8011509825       5.0706079676      10.0000000000 
B           11.2918508039       7.9680982347      10.0000000000 
N           12.5465008932       7.2437256679      10.0000000000 
B           10.0372007146      10.1412159350      10.0000000000 
N           11.2918508040       9.4168433683      10.0000000000 
B            8.7825506254      12.3143336354      10.0000000000 
N           10.0372007147      11.5899610687      10.0000000000 
B            7.5279005361      14.4874513358      10.0000000000 
N            8.7825506255      13.7630787690      10.0000000000 
B            6.2732504469      16.6605690361      10.0000000000 
N            7.5279005362      15.9361964694      10.0000000000 
B           17.5651012502       1.4487451335      10.0000000000 
N           18.8197513396       0.7243725668      10.0000000000 
B           16.3104511610       3.6218628339      10.0000000000 
N           17.5651012503       2.8974902672      10.0000000000 
B           15.0558010717       5.7949805343      10.0000000000 
N           16.3104511611       5.0706079676      10.0000000000 
B           13.8011509825       7.9680982347      10.0000000000 
N           15.0558010718       7.2437256679      10.0000000000 
B           12.5465008932      10.1412159350      10.0000000000 
N           13.8011509826       9.4168433683      10.0000000000 
B           11.2918508040      12.3143336354      10.0000000000 
N           12.5465008933      11.5899610687      10.0000000000 
B           10.0372007147      14.4874513358      10.0000000000 
N           11.2918508041      13.7630787690      10.0000000000 
B            8.7825506255      16.6605690361      10.0000000000 
N           10.0372007148      15.9361964694      10.0000000000 
C            0.0000000000       1.4487451335      10.0000000000 
K_POINTS automatic
2 2 1 0 0 0
CELL_PARAMETERS angstrom
     20.0744014288       0.0000000000       0.0000000000
    -10.0372007140      17.3849416029       0.0000000000
      0.0000000000       0.0000000000      20.0744014288
